GLPSOL--GLPK LP/MIP Solver 5.0
Parameter(s) specified in the command line:
 --lp ../modeles/5_314.lp --log 5_314.log
Reading problem data from '../modeles/5_314.lp'...
1591 rows, 3150 columns, 11005 non-zeros
1570 integer variables, all of which are binary
4752 lines were read
GLPK Integer Optimizer 5.0
1591 rows, 3150 columns, 11005 non-zeros
1570 integer variables, all of which are binary
Preprocessing...
1550 constraint coefficient(s) were reduced
1591 rows, 3145 columns, 11000 non-zeros
1570 integer variables, all of which are binary
Scaling...
 A: min|aij| =  1.623e-04  max|aij| =  4.000e+00  ratio =  2.465e+04
GM: min|aij| =  7.981e-02  max|aij| =  1.253e+01  ratio =  1.570e+02
EQ: min|aij| =  6.369e-03  max|aij| =  1.000e+00  ratio =  1.570e+02
2N: min|aij| =  5.193e-03  max|aij| =  1.770e+00  ratio =  3.409e+02
Constructing initial basis...
Size of triangular part is 1591
Solving LP relaxation...
GLPK Simplex Optimizer 5.0
1591 rows, 3145 columns, 11000 non-zeros
      0: obj =   1.000000000e+01 inf =   2.450e+01 (11)
     94: obj =   4.082628365e-01 inf =   0.000e+00 (0)
*   331: obj =  -2.235982776e+00 inf =   1.298e-15 (0)
OPTIMAL LP SOLUTION FOUND
Integer optimization begins...
Long-step dual simplex will be used
+   331: mip =     not found yet >=              -inf        (1; 0)
+   871: >>>>>  -2.235982776e+00 >=  -2.235982776e+00 < 0.1% (537; 0)
+   871: mip =  -2.235982776e+00 >=     tree is empty   0.0% (0; 1073)
INTEGER OPTIMAL SOLUTION FOUND
Time used:   1.2 secs
Memory used: 4.6 Mb (4810923 bytes)
